\ENCODING=ISO-8859-1
\Problem name: ilog.cplex

Minimize
 obj1: 94875 x1 + 101943 x2 + 99372 x3 + 94638 x4 + 102870 x5 + 94441 x6
       + 91438 x7 + 104284 x8 + 99466 x9 + 103406 x10 + 109481 x11 + 101990 x12
       + 96955 x13 + 96604 x14 + 93006 x15 + 95504 x16 + 101020 x17
       + 105813 x18 + 91898 x19 + 97190 x20 + 97632 x21 + 92993 x22 + 92880 x23
       + 104366 x24 + 100547 x25 + 95031 x26 + 99329 x27 + 94699 x28
       + 90817 x29 + 92373 x30 + 90876 x31 + 102990 x32 + 107418 x33
       + 102808 x34 + 94703 x35 + 91958 x36 + 96373 x37 + 103254 x38
       + 96570 x39 + 91514 x40 + 94696 x41 + 109598 x42 + 106320 x43
       + 98548 x44 + 95032 x45 + 97476 x46 + 90026 x47 + 102391 x48
       + 107027 x49 + 105334 x50 + 108857 x51 + 109872 x52 + 102287 x53
       + 105206 x54 + 103427 x55 + 108314 x56 + 101185 x57 + 96324 x58
       + 91578 x59 + 104798 x60 + 95696 x61 + 104339 x62 + 91490 x63
       + 100073 x64 + 91725 x65 + 96260 x66 + 93940 x67 + 91153 x68 + 90679 x69
       + 100129 x70 + 106143 x71 + 102844 x72 + 92516 x73 + 97180 x74
       + 90632 x75 + 109409 x76 + 109611 x77 + 97616 x78 + 106509 x79
       + 99083 x80 + 98766 x81 + 103030 x82 + 103304 x83 + 96345 x84
       + 90957 x85 + 103201 x86 + 103189 x87 + 108953 x88 + 99833 x89
       + 96463 x90 + 107160 x91 + 109002 x92 + 90582 x93 + 100579 x94
       + 106780 x95 + 92711 x96 + 107119 x97 + 99306 x98 + 94632 x99
       + 109799 x100 + 107373 x101 + 108802 x102 + 103847 x103 + 90005 x104
       + 104022 x105 + 107531 x106 + 109918 x107 + 101722 x108 + 91145 x109
       + 93553 x110 + 96443 x111 + 95651 x112 + 96032 x113 + 93833 x114
       + 100544 x115 + 95037 x116 + 109790 x117 + 91675 x118 + 93398 x119
       + 93250 x120 + 109378 x121 + 97612 x122 + 94064 x123 + 106564 x124
       + 92946 x125 + 99949 x126 + 109417 x127 + 93830 x128 + 100018 x129
       + 91813 x130 + 96982 x131 + 90228 x132 + 104667 x133 + 90142 x134
       + 103993 x135 + 99819 x136 + 102158 x137 + 109077 x138 + 96884 x139
       + 106891 x140 + 103176 x141 + 94419 x142 + 96900 x143 + 91414 x144
       + 92066 x145 + 99204 x146 + 108827 x147 + 107622 x148 + 106252 x149
       + 106696 x150 + 109895 x151 + 91660 x152 + 108895 x153 + 97754 x154
       + 93540 x155 + 100183 x156 + 92342 x157 + 105823 x158 + 91085 x159
       + 103388 x160 + 105994 x161 + 104641 x162 + 103240 x163 + 103135 x164
       + 109003 x165 + 91331 x166 + 102954 x167 + 99705 x168 + 105556 x169
       + 100646 x170 + 101264 x171 + 109122 x172 + 108460 x173 + 94940 x174
       + 98623 x175 + 97129 x176 + 95429 x177 + 98792 x178 + 95603 x179
       + 105541 x180 + 102091 x181 + 91909 x182 + 92535 x183 + 91405 x184
       + 105799 x185 + 106851 x186 + 104328 x187 + 107844 x188 + 106498 x189
       + 97351 x190 + 107726 x191 + 92539 x192 + 109358 x193 + 94887 x194
       + 102844 x195 + 108993 x196 + 93064 x197 + 106420 x198 + 90303 x199
       + 107289 x200 + 93780 x201 + 96139 x202 + 99547 x203 + 90544 x204
       + 96110 x205 + 99821 x206 + 106648 x207 + 98252 x208 + 106957 x209
       + 101787 x210 + 93196 x211 + 91346 x212 + 108539 x213 + 109326 x214
       + 98586 x215 + 101536 x216 + 92754 x217 + 94951 x218 + 94202 x219
       + 105730 x220 + 90685 x221 + 102925 x222 + 99962 x223 + 105314 x224
       + 108242 x225 + 93288 x226 + 91167 x227 + 109585 x228 + 101743 x229
       + 103938 x230 + 106751 x231 + 102827 x232 + 95749 x233 + 109322 x234
       + 108811 x235 + 95308 x236 + 99480 x237 + 102910 x238 + 97666 x239
       + 99913 x240 + 98174 x241 + 98932 x242 + 106122 x243 + 107200 x244
       + 102127 x245 + 108939 x246 + 100795 x247 + 93513 x248 + 101736 x249
       + 105793 x250 + 109533 x251 + 98070 x252 + 91552 x253 + 100299 x254
       + 108667 x255 + 95436 x256 + 94808 x257 + 105187 x258 + 92002 x259
       + 105006 x260 + 108356 x261 + 104017 x262 + 95239 x263 + 104590 x264
       + 97621 x265 + 91549 x266 + 106603 x267 + 106845 x268 + 97195 x269
       + 101793 x270 + 106499 x271 + 95486 x272 + 99737 x273 + 90289 x274
       + 93859 x275 + 108876 x276 + 103519 x277 + 93154 x278 + 102354 x279
       + 104832 x280 + 97273 x281 + 106968 x282 + 105739 x283 + 102400 x284
       + 109878 x285 + 100825 x286 + 98369 x287 + 93870 x288 + 102049 x289
       + 104673 x290 + 94230 x291 + 93442 x292 + 107288 x293 + 96535 x294
       + 95888 x295 + 97714 x296 + 100209 x297 + 95302 x298 + 103318 x299
       + 77744 x300 + 19424 x301 + 21102 x302 + 18085 x303 + 18684 x304
       + 20690 x305 + 19070 x306 + 20917 x307 + 18129 x308 + 18559 x309
       + 18290 x310 + 20568 x311 + 18968 x312 + 21405 x313 + 20492 x314
       + 19979 x315 + 20461 x316 + 18625 x317 + 19120 x318 + 19646 x319
       + 18748 x320 + 21754 x321 + 20250 x322 + 20114 x323 + 20634 x324
       + 18747 x325 + 20313 x326 + 19091 x327 + 21017 x328 + 21020 x329
       + 19452 x330 + 21164 x331 + 21789 x332 + 19981 x333 + 21001 x334
       + 20490 x335 + 21446 x336 + 18386 x337 + 19588 x338 + 20571 x339
       + 18302 x340 + 21758 x341 + 20819 x342 + 20360 x343 + 18359 x344
       + 18475 x345 + 20226 x346 + 18456 x347 + 21316 x348 + 19767 x349
       + 18385 x350 + 19006 x351 + 19057 x352 + 20973 x353 + 18577 x354
       + 20206 x355 + 20207 x356 + 18831 x357 + 19353 x358 + 20908 x359
       + 28889 x360
Subject To
 c1:   - x1 - x7 - x10 + x13 - x17 - x24 + x26 + x34 - x42 - x43 + x48 + x53
        = 0
 c2:   - x61 - x67 - x70 + x73 - x77 - x84 + x86 + x94 - x102 - x103 + x108
       + x113  = 0
 c3:   - x121 - x127 - x130 + x133 - x137 - x144 + x146 + x154 - x162 - x163
       + x168 + x173  = 0
 c4:   - x181 - x187 - x190 + x193 - x197 - x204 + x206 + x214 - x222 - x223
       + x228 + x233  = 0
 c5:   - x241 - x247 - x250 + x253 - x257 - x264 + x266 + x274 - x282 - x283
       + x288 + x293  = 0
 c6:   x2 + x5 - x6 + x12 + x16 - x23 + x24 + x33 - x38 - x39 - x49 - x51 + x57
       + x59  = 0
 c7:   x62 + x65 - x66 + x72 + x76 - x83 + x84 + x93 - x98 - x99 - x109 - x111
       + x117 + x119  = 1
 c8:   x122 + x125 - x126 + x132 + x136 - x143 + x144 + x153 - x158 - x159
       - x169 - x171 + x177 + x179  = 0
 c9:   x182 + x185 - x186 + x192 + x196 - x203 + x204 + x213 - x218 - x219
       - x229 - x231 + x237 + x239  = 0
 c10:  x242 + x245 - x246 + x252 + x256 - x263 + x264 + x273 - x278 - x279
       - x289 - x291 + x297 + x299  = 0
 c11:  - x3 - x5 + x10 - x13 + x14 - x21 + x25 + x29 - x31 - x35 + x38 - x40
       - x50 + x56 + x58  = 0
 c12:  - x63 - x65 + x70 - x73 + x74 - x81 + x85 + x89 - x91 - x95 + x98 - x100
       - x110 + x116 + x118  = 0
 c13:  - x123 - x125 + x130 - x133 + x134 - x141 + x145 + x149 - x151 - x155
       + x158 - x160 - x170 + x176 + x178  = 0
 c14:  - x183 - x185 + x190 - x193 + x194 - x201 + x205 + x209 - x211 - x215
       + x218 - x220 - x230 + x236 + x238  = 0
 c15:  - x243 - x245 + x250 - x253 + x254 - x261 + x265 + x269 - x271 - x275
       + x278 - x280 - x290 + x296 + x298  = 0
 c16:  x9 + x11 - x16 - x19 + x28 - x32 - x34 - x41 + x50 + x51 - x60  = 0
 c17:  x69 + x71 - x76 - x79 + x88 - x92 - x94 - x101 + x110 + x111 - x120  = 0
 c18:  x129 + x131 - x136 - x139 + x148 - x152 - x154 - x161 + x170 + x171
       - x180  = -1
 c19:  x189 + x191 - x196 - x199 + x208 - x212 - x214 - x221 + x230 + x231
       - x240  = 0
 c20:  x249 + x251 - x256 - x259 + x268 - x272 - x274 - x281 + x290 + x291
       - x300  = -1
 c21:  - x2 + x3 + x7 + x15 - x20 + x23 + x27 - x28 - x29 + x41 + x44 + x45
       - x48 + x54 - x55  = 1
 c22:  - x62 + x63 + x67 + x75 - x80 + x83 + x87 - x88 - x89 + x101 + x104
       + x105 - x108 + x114 - x115  = 0
 c23:  - x122 + x123 + x127 + x135 - x140 + x143 + x147 - x148 - x149 + x161
       + x164 + x165 - x168 + x174 - x175  = 0
 c24:  - x182 + x183 + x187 + x195 - x200 + x203 + x207 - x208 - x209 + x221
       + x224 + x225 - x228 + x234 - x235  = 0
 c25:  - x242 + x243 + x247 + x255 - x260 + x263 + x267 - x268 - x269 + x281
       + x284 + x285 - x288 + x294 - x295  = 0
 c26:  - x12 - x15 + x18 + x20 + x22 + x35 + x37 + x43 - x46 - x47 - x52 - x53
        = 0
 c27:  - x72 - x75 + x78 + x80 + x82 + x95 + x97 + x103 - x106 - x107 - x112
       - x113  = 0
 c28:  - x132 - x135 + x138 + x140 + x142 + x155 + x157 + x163 - x166 - x167
       - x172 - x173  = 1
 c29:  - x192 - x195 + x198 + x200 + x202 + x215 + x217 + x223 - x226 - x227
       - x232 - x233  = 0
 c30:  - x252 - x255 + x258 + x260 + x262 + x275 + x277 + x283 - x286 - x287
       - x292 - x293  = 0
 c31:  x1 + x4 - x9 - x18 - x25 - x30 + x31 + x36 + x49 + x52 - x54 - x57 + x60
        = 0
 c32:  x61 + x64 - x69 - x78 - x85 - x90 + x91 + x96 + x109 + x112 - x114
       - x117 + x120  = 0
 c33:  x121 + x124 - x129 - x138 - x145 - x150 + x151 + x156 + x169 + x172
       - x174 - x177 + x180  = 0
 c34:  x181 + x184 - x189 - x198 - x205 - x210 + x211 + x216 + x229 + x232
       - x234 - x237 + x240  = 0
 c35:  x241 + x244 - x249 - x258 - x265 - x270 + x271 + x276 + x289 + x292
       - x294 - x297 + x300  = 0
 c36:  x8 - x11 + x21 - x22 + x32 + x39 - x45 + x46 + x55 - x56  = 0
 c37:  x68 - x71 + x81 - x82 + x92 + x99 - x105 + x106 + x115 - x116  = 0
 c38:  x128 - x131 + x141 - x142 + x152 + x159 - x165 + x166 + x175 - x176  = 0
 c39:  x188 - x191 + x201 - x202 + x212 + x219 - x225 + x226 + x235 - x236  = 0
 c40:  x248 - x251 + x261 - x262 + x272 + x279 - x285 + x286 + x295 - x296  = 0
 c41:  - x4 + x6 - x14 + x17 + x19 + x30 - x37 + x40 - x44 - x59  = 0
 c42:  - x64 + x66 - x74 + x77 + x79 + x90 - x97 + x100 - x104 - x119  = -1
 c43:  - x124 + x126 - x134 + x137 + x139 + x150 - x157 + x160 - x164 - x179
        = 0
 c44:  - x184 + x186 - x194 + x197 + x199 + x210 - x217 + x220 - x224 - x239
        = 1
 c45:  - x244 + x246 - x254 + x257 + x259 + x270 - x277 + x280 - x284 - x299
        = 0
 c46:  - x8 - x26 - x27 - x33 - x36 + x42 + x47 - x58  = -1
 c47:  - x68 - x86 - x87 - x93 - x96 + x102 + x107 - x118  = 0
 c48:  - x128 - x146 - x147 - x153 - x156 + x162 + x167 - x178  = 0
 c49:  - x188 - x206 - x207 - x213 - x216 + x222 + x227 - x238  = -1
 c50:  - x248 - x266 - x267 - x273 - x276 + x282 + x287 - x298  = 1
 c51:  4 x1 + 4 x61 + 4 x121 + 4 x181 + 4 x241 - 10 x301 <= 0
 c52:  4 x2 + 4 x62 + 4 x122 + 4 x182 + 4 x242 - 10 x302 <= 0
 c53:  4 x3 + 4 x63 + 4 x123 + 4 x183 + 4 x243 - 9 x303 <= 0
 c54:  4 x4 + 4 x64 + 4 x124 + 4 x184 + 4 x244 - 10 x304 <= 0
 c55:  4 x5 + 4 x65 + 4 x125 + 4 x185 + 4 x245 - 10 x305 <= 0
 c56:  4 x6 + 4 x66 + 4 x126 + 4 x186 + 4 x246 - 10 x306 <= 0
 c57:  4 x7 + 4 x67 + 4 x127 + 4 x187 + 4 x247 - 11 x307 <= 0
 c58:  4 x8 + 4 x68 + 4 x128 + 4 x188 + 4 x248 - 10 x308 <= 0
 c59:  4 x9 + 4 x69 + 4 x129 + 4 x189 + 4 x249 - 9 x309 <= 0
 c60:  4 x10 + 4 x70 + 4 x130 + 4 x190 + 4 x250 - 9 x310 <= 0
 c61:  4 x11 + 4 x71 + 4 x131 + 4 x191 + 4 x251 - 10 x311 <= 0
 c62:  4 x12 + 4 x72 + 4 x132 + 4 x192 + 4 x252 - 11 x312 <= 0
 c63:  4 x13 + 4 x73 + 4 x133 + 4 x193 + 4 x253 - 11 x313 <= 0
 c64:  4 x14 + 4 x74 + 4 x134 + 4 x194 + 4 x254 - 10 x314 <= 0
 c65:  4 x15 + 4 x75 + 4 x135 + 4 x195 + 4 x255 - 9 x315 <= 0
 c66:  4 x16 + 4 x76 + 4 x136 + 4 x196 + 4 x256 - 11 x316 <= 0
 c67:  4 x17 + 4 x77 + 4 x137 + 4 x197 + 4 x257 - 10 x317 <= 0
 c68:  4 x18 + 4 x78 + 4 x138 + 4 x198 + 4 x258 - 10 x318 <= 0
 c69:  4 x19 + 4 x79 + 4 x139 + 4 x199 + 4 x259 - 9 x319 <= 0
 c70:  4 x20 + 4 x80 + 4 x140 + 4 x200 + 4 x260 - 10 x320 <= 0
 c71:  4 x21 + 4 x81 + 4 x141 + 4 x201 + 4 x261 - 10 x321 <= 0
 c72:  4 x22 + 4 x82 + 4 x142 + 4 x202 + 4 x262 - 9 x322 <= 0
 c73:  4 x23 + 4 x83 + 4 x143 + 4 x203 + 4 x263 - 9 x323 <= 0
 c74:  4 x24 + 4 x84 + 4 x144 + 4 x204 + 4 x264 - 10 x324 <= 0
 c75:  4 x25 + 4 x85 + 4 x145 + 4 x205 + 4 x265 - 10 x325 <= 0
 c76:  4 x26 + 4 x86 + 4 x146 + 4 x206 + 4 x266 - 11 x326 <= 0
 c77:  4 x27 + 4 x87 + 4 x147 + 4 x207 + 4 x267 - 9 x327 <= 0
 c78:  4 x28 + 4 x88 + 4 x148 + 4 x208 + 4 x268 - 11 x328 <= 0
 c79:  4 x29 + 4 x89 + 4 x149 + 4 x209 + 4 x269 - 10 x329 <= 0
 c80:  4 x30 + 4 x90 + 4 x150 + 4 x210 + 4 x270 - 10 x330 <= 0
 c81:  4 x31 + 4 x91 + 4 x151 + 4 x211 + 4 x271 - 9 x331 <= 0
 c82:  4 x32 + 4 x92 + 4 x152 + 4 x212 + 4 x272 - 9 x332 <= 0
 c83:  4 x33 + 4 x93 + 4 x153 + 4 x213 + 4 x273 - 10 x333 <= 0
 c84:  4 x34 + 4 x94 + 4 x154 + 4 x214 + 4 x274 - 10 x334 <= 0
 c85:  4 x35 + 4 x95 + 4 x155 + 4 x215 + 4 x275 - 11 x335 <= 0
 c86:  4 x36 + 4 x96 + 4 x156 + 4 x216 + 4 x276 - 11 x336 <= 0
 c87:  4 x37 + 4 x97 + 4 x157 + 4 x217 + 4 x277 - 10 x337 <= 0
 c88:  4 x38 + 4 x98 + 4 x158 + 4 x218 + 4 x278 - 10 x338 <= 0
 c89:  4 x39 + 4 x99 + 4 x159 + 4 x219 + 4 x279 - 11 x339 <= 0
 c90:  4 x40 + 4 x100 + 4 x160 + 4 x220 + 4 x280 - 10 x340 <= 0
 c91:  4 x41 + 4 x101 + 4 x161 + 4 x221 + 4 x281 - 11 x341 <= 0
 c92:  4 x42 + 4 x102 + 4 x162 + 4 x222 + 4 x282 - 10 x342 <= 0
 c93:  4 x43 + 4 x103 + 4 x163 + 4 x223 + 4 x283 - 9 x343 <= 0
 c94:  4 x44 + 4 x104 + 4 x164 + 4 x224 + 4 x284 - 10 x344 <= 0
 c95:  4 x45 + 4 x105 + 4 x165 + 4 x225 + 4 x285 - 9 x345 <= 0
 c96:  4 x46 + 4 x106 + 4 x166 + 4 x226 + 4 x286 - 10 x346 <= 0
 c97:  4 x47 + 4 x107 + 4 x167 + 4 x227 + 4 x287 - 9 x347 <= 0
 c98:  4 x48 + 4 x108 + 4 x168 + 4 x228 + 4 x288 - 11 x348 <= 0
 c99:  4 x49 + 4 x109 + 4 x169 + 4 x229 + 4 x289 - 10 x349 <= 0
 c100: 4 x50 + 4 x110 + 4 x170 + 4 x230 + 4 x290 - 10 x350 <= 0
 c101: 4 x51 + 4 x111 + 4 x171 + 4 x231 + 4 x291 - 10 x351 <= 0
 c102: 4 x52 + 4 x112 + 4 x172 + 4 x232 + 4 x292 - 11 x352 <= 0
 c103: 4 x53 + 4 x113 + 4 x173 + 4 x233 + 4 x293 - 9 x353 <= 0
 c104: 4 x54 + 4 x114 + 4 x174 + 4 x234 + 4 x294 - 11 x354 <= 0
 c105: 4 x55 + 4 x115 + 4 x175 + 4 x235 + 4 x295 - 9 x355 <= 0
 c106: 4 x56 + 4 x116 + 4 x176 + 4 x236 + 4 x296 - 11 x356 <= 0
 c107: 4 x57 + 4 x117 + 4 x177 + 4 x237 + 4 x297 - 11 x357 <= 0
 c108: 4 x58 + 4 x118 + 4 x178 + 4 x238 + 4 x298 - 9 x358 <= 0
 c109: 4 x59 + 4 x119 + 4 x179 + 4 x239 + 4 x299 - 11 x359 <= 0
 c110: 4 x60 + 4 x120 + 4 x180 + 4 x240 + 4 x300 - 10 x360 <= 0
Bounds
 0 <= x1 <= 1
 0 <= x2 <= 1
 0 <= x3 <= 1
 0 <= x4 <= 1
 0 <= x5 <= 1
 0 <= x6 <= 1
 0 <= x7 <= 1
 0 <= x8 <= 1
 0 <= x9 <= 1
 0 <= x10 <= 1
 0 <= x11 <= 1
 0 <= x12 <= 1
 0 <= x13 <= 1
 0 <= x14 <= 1
 0 <= x15 <= 1
 0 <= x16 <= 1
 0 <= x17 <= 1
 0 <= x18 <= 1
 0 <= x19 <= 1
 0 <= x20 <= 1
 0 <= x21 <= 1
 0 <= x22 <= 1
 0 <= x23 <= 1
 0 <= x24 <= 1
 0 <= x25 <= 1
 0 <= x26 <= 1
 0 <= x27 <= 1
 0 <= x28 <= 1
 0 <= x29 <= 1
 0 <= x30 <= 1
 0 <= x31 <= 1
 0 <= x32 <= 1
 0 <= x33 <= 1
 0 <= x34 <= 1
 0 <= x35 <= 1
 0 <= x36 <= 1
 0 <= x37 <= 1
 0 <= x38 <= 1
 0 <= x39 <= 1
 0 <= x40 <= 1
 0 <= x41 <= 1
 0 <= x42 <= 1
 0 <= x43 <= 1
 0 <= x44 <= 1
 0 <= x45 <= 1
 0 <= x46 <= 1
 0 <= x47 <= 1
 0 <= x48 <= 1
 0 <= x49 <= 1
 0 <= x50 <= 1
 0 <= x51 <= 1
 0 <= x52 <= 1
 0 <= x53 <= 1
 0 <= x54 <= 1
 0 <= x55 <= 1
 0 <= x56 <= 1
 0 <= x57 <= 1
 0 <= x58 <= 1
 0 <= x59 <= 1
 0 <= x60 <= 1
 0 <= x61 <= 1
 0 <= x62 <= 1
 0 <= x63 <= 1
 0 <= x64 <= 1
 0 <= x65 <= 1
 0 <= x66 <= 1
 0 <= x67 <= 1
 0 <= x68 <= 1
 0 <= x69 <= 1
 0 <= x70 <= 1
 0 <= x71 <= 1
 0 <= x72 <= 1
 0 <= x73 <= 1
 0 <= x74 <= 1
 0 <= x75 <= 1
 0 <= x76 <= 1
 0 <= x77 <= 1
 0 <= x78 <= 1
 0 <= x79 <= 1
 0 <= x80 <= 1
 0 <= x81 <= 1
 0 <= x82 <= 1
 0 <= x83 <= 1
 0 <= x84 <= 1
 0 <= x85 <= 1
 0 <= x86 <= 1
 0 <= x87 <= 1
 0 <= x88 <= 1
 0 <= x89 <= 1
 0 <= x90 <= 1
 0 <= x91 <= 1
 0 <= x92 <= 1
 0 <= x93 <= 1
 0 <= x94 <= 1
 0 <= x95 <= 1
 0 <= x96 <= 1
 0 <= x97 <= 1
 0 <= x98 <= 1
 0 <= x99 <= 1
 0 <= x100 <= 1
 0 <= x101 <= 1
 0 <= x102 <= 1
 0 <= x103 <= 1
 0 <= x104 <= 1
 0 <= x105 <= 1
 0 <= x106 <= 1
 0 <= x107 <= 1
 0 <= x108 <= 1
 0 <= x109 <= 1
 0 <= x110 <= 1
 0 <= x111 <= 1
 0 <= x112 <= 1
 0 <= x113 <= 1
 0 <= x114 <= 1
 0 <= x115 <= 1
 0 <= x116 <= 1
 0 <= x117 <= 1
 0 <= x118 <= 1
 0 <= x119 <= 1
 0 <= x120 <= 1
 0 <= x121 <= 1
 0 <= x122 <= 1
 0 <= x123 <= 1
 0 <= x124 <= 1
 0 <= x125 <= 1
 0 <= x126 <= 1
 0 <= x127 <= 1
 0 <= x128 <= 1
 0 <= x129 <= 1
 0 <= x130 <= 1
 0 <= x131 <= 1
 0 <= x132 <= 1
 0 <= x133 <= 1
 0 <= x134 <= 1
 0 <= x135 <= 1
 0 <= x136 <= 1
 0 <= x137 <= 1
 0 <= x138 <= 1
 0 <= x139 <= 1
 0 <= x140 <= 1
 0 <= x141 <= 1
 0 <= x142 <= 1
 0 <= x143 <= 1
 0 <= x144 <= 1
 0 <= x145 <= 1
 0 <= x146 <= 1
 0 <= x147 <= 1
 0 <= x148 <= 1
 0 <= x149 <= 1
 0 <= x150 <= 1
 0 <= x151 <= 1
 0 <= x152 <= 1
 0 <= x153 <= 1
 0 <= x154 <= 1
 0 <= x155 <= 1
 0 <= x156 <= 1
 0 <= x157 <= 1
 0 <= x158 <= 1
 0 <= x159 <= 1
 0 <= x160 <= 1
 0 <= x161 <= 1
 0 <= x162 <= 1
 0 <= x163 <= 1
 0 <= x164 <= 1
 0 <= x165 <= 1
 0 <= x166 <= 1
 0 <= x167 <= 1
 0 <= x168 <= 1
 0 <= x169 <= 1
 0 <= x170 <= 1
 0 <= x171 <= 1
 0 <= x172 <= 1
 0 <= x173 <= 1
 0 <= x174 <= 1
 0 <= x175 <= 1
 0 <= x176 <= 1
 0 <= x177 <= 1
 0 <= x178 <= 1
 0 <= x179 <= 1
 0 <= x180 <= 1
 0 <= x181 <= 1
 0 <= x182 <= 1
 0 <= x183 <= 1
 0 <= x184 <= 1
 0 <= x185 <= 1
 0 <= x186 <= 1
 0 <= x187 <= 1
 0 <= x188 <= 1
 0 <= x189 <= 1
 0 <= x190 <= 1
 0 <= x191 <= 1
 0 <= x192 <= 1
 0 <= x193 <= 1
 0 <= x194 <= 1
 0 <= x195 <= 1
 0 <= x196 <= 1
 0 <= x197 <= 1
 0 <= x198 <= 1
 0 <= x199 <= 1
 0 <= x200 <= 1
 0 <= x201 <= 1
 0 <= x202 <= 1
 0 <= x203 <= 1
 0 <= x204 <= 1
 0 <= x205 <= 1
 0 <= x206 <= 1
 0 <= x207 <= 1
 0 <= x208 <= 1
 0 <= x209 <= 1
 0 <= x210 <= 1
 0 <= x211 <= 1
 0 <= x212 <= 1
 0 <= x213 <= 1
 0 <= x214 <= 1
 0 <= x215 <= 1
 0 <= x216 <= 1
 0 <= x217 <= 1
 0 <= x218 <= 1
 0 <= x219 <= 1
 0 <= x220 <= 1
 0 <= x221 <= 1
 0 <= x222 <= 1
 0 <= x223 <= 1
 0 <= x224 <= 1
 0 <= x225 <= 1
 0 <= x226 <= 1
 0 <= x227 <= 1
 0 <= x228 <= 1
 0 <= x229 <= 1
 0 <= x230 <= 1
 0 <= x231 <= 1
 0 <= x232 <= 1
 0 <= x233 <= 1
 0 <= x234 <= 1
 0 <= x235 <= 1
 0 <= x236 <= 1
 0 <= x237 <= 1
 0 <= x238 <= 1
 0 <= x239 <= 1
 0 <= x240 <= 1
 0 <= x241 <= 1
 0 <= x242 <= 1
 0 <= x243 <= 1
 0 <= x244 <= 1
 0 <= x245 <= 1
 0 <= x246 <= 1
 0 <= x247 <= 1
 0 <= x248 <= 1
 0 <= x249 <= 1
 0 <= x250 <= 1
 0 <= x251 <= 1
 0 <= x252 <= 1
 0 <= x253 <= 1
 0 <= x254 <= 1
 0 <= x255 <= 1
 0 <= x256 <= 1
 0 <= x257 <= 1
 0 <= x258 <= 1
 0 <= x259 <= 1
 0 <= x260 <= 1
 0 <= x261 <= 1
 0 <= x262 <= 1
 0 <= x263 <= 1
 0 <= x264 <= 1
 0 <= x265 <= 1
 0 <= x266 <= 1
 0 <= x267 <= 1
 0 <= x268 <= 1
 0 <= x269 <= 1
 0 <= x270 <= 1
 0 <= x271 <= 1
 0 <= x272 <= 1
 0 <= x273 <= 1
 0 <= x274 <= 1
 0 <= x275 <= 1
 0 <= x276 <= 1
 0 <= x277 <= 1
 0 <= x278 <= 1
 0 <= x279 <= 1
 0 <= x280 <= 1
 0 <= x281 <= 1
 0 <= x282 <= 1
 0 <= x283 <= 1
 0 <= x284 <= 1
 0 <= x285 <= 1
 0 <= x286 <= 1
 0 <= x287 <= 1
 0 <= x288 <= 1
 0 <= x289 <= 1
 0 <= x290 <= 1
 0 <= x291 <= 1
 0 <= x292 <= 1
 0 <= x293 <= 1
 0 <= x294 <= 1
 0 <= x295 <= 1
 0 <= x296 <= 1
 0 <= x297 <= 1
 0 <= x298 <= 1
 0 <= x299 <= 1
 0 <= x300 <= 1
 0 <= x301 <= 1
 0 <= x302 <= 1
 0 <= x303 <= 1
 0 <= x304 <= 1
 0 <= x305 <= 1
 0 <= x306 <= 1
 0 <= x307 <= 1
 0 <= x308 <= 1
 0 <= x309 <= 1
 0 <= x310 <= 1
 0 <= x311 <= 1
 0 <= x312 <= 1
 0 <= x313 <= 1
 0 <= x314 <= 1
 0 <= x315 <= 1
 0 <= x316 <= 1
 0 <= x317 <= 1
 0 <= x318 <= 1
 0 <= x319 <= 1
 0 <= x320 <= 1
 0 <= x321 <= 1
 0 <= x322 <= 1
 0 <= x323 <= 1
 0 <= x324 <= 1
 0 <= x325 <= 1
 0 <= x326 <= 1
 0 <= x327 <= 1
 0 <= x328 <= 1
 0 <= x329 <= 1
 0 <= x330 <= 1
 0 <= x331 <= 1
 0 <= x332 <= 1
 0 <= x333 <= 1
 0 <= x334 <= 1
 0 <= x335 <= 1
 0 <= x336 <= 1
 0 <= x337 <= 1
 0 <= x338 <= 1
 0 <= x339 <= 1
 0 <= x340 <= 1
 0 <= x341 <= 1
 0 <= x342 <= 1
 0 <= x343 <= 1
 0 <= x344 <= 1
 0 <= x345 <= 1
 0 <= x346 <= 1
 0 <= x347 <= 1
 0 <= x348 <= 1
 0 <= x349 <= 1
 0 <= x350 <= 1
 0 <= x351 <= 1
 0 <= x352 <= 1
 0 <= x353 <= 1
 0 <= x354 <= 1
 0 <= x355 <= 1
 0 <= x356 <= 1
 0 <= x357 <= 1
 0 <= x358 <= 1
 0 <= x359 <= 1
 0 <= x360 <= 1
Binaries
 x301  x302  x303  x304  x305  x306  x307  x308  x309  x310  x311  x312  x313 
 x314  x315  x316  x317  x318  x319  x320  x321  x322  x323  x324  x325  x326 
 x327  x328  x329  x330  x331  x332  x333  x334  x335  x336  x337  x338  x339 
 x340  x341  x342  x343  x344  x345  x346  x347  x348  x349  x350  x351  x352 
 x353  x354  x355  x356  x357  x358  x359  x360 
End
